100 3 100
77 30 61 34 58 98 96 44 76 53 19 77 45 4 85 50 11 78 99 62 51 15 3 82 70 55 56 66 8 90 38 85 21 51 71 31 49 20 28 26 73 99 55 71 55 93 73 67 71 73 81 74 40 36 56 62 91 65 28 51 55 18 88 28 70 60 12 71 80 40 97 5 91 53 76 47 46 50 66 69 75 47 43 15 83 52 78 26 17 58 77 72 29 65 1 51 77 65 22 57 
